\ENCODING=ISO-8859-1
\Problem name: IloCplex

Maximize
 obj: 357 vnp2 - 52 (π,ρ)0↑e6 - 80 (π,ρ)1↑e6
      - 76 (π,ρ)2↑e6 - 62 (π,ρ)3↑e6
      - 32 (π,ρ)4↑e6 - 58 (π,ρ)5↑e6
      - 96 (π,ρ)6↑e6 - 100 (π,ρ)7↑e6
      - 70 (π,ρ)8↑e6 - 68 (π,ρ)9↑e6
      - 60 (π,ρ)10↑e6 - 52 (π,ρ)11↑e6
      - 104 (π,ρ)12↑e6 - 134 (π,ρ)13↑e6
      - 81 (π,ρ)14↑e6 - 27 (π,ρ)15↑e7
      - 27 (π,ρ)16↑e7 - 11 (π,ρ)17↑e7
      - 39 (π,ρ)18↑e7 - 39 (π,ρ)19↑e7
      - 40 (π,ρ)20↑e7 - 51 (π,ρ)21↑e7
      - 63 (π,ρ)22↑e7 - 51 (π,ρ)23↑e7
      - 31 (π,ρ)24↑e7 - 49 (π,ρ)25↑e7
      - 61 (π,ρ)26↑e7 - 35 (π,ρ)27↑e7
      - 47 (π,ρ)28↑e7 - 28 (π,ρ)29↑e7
      - 63 (π,ρ)30↑e8 + 1364 vnp3 - 217 (π,ρ)31↑e9
      - 283 (π,ρ)32↑e9 - 198 (π,ρ)33↑e9
      - 400 (π,ρ)34↑e9 - 388 (π,ρ)35↑e9
      - 357 (π,ρ)36↑e9 - 355 (π,ρ)37↑e9
      - 317 (π,ρ)38↑e9 - 372 (π,ρ)39↑e9
      - 234 (π,ρ)40↑e9 - 345 (π,ρ)41↑e9
      - 253 (π,ρ)42↑e9 - 289 (π,ρ)43↑e9
      - 334 (π,ρ)44↑e9 - 289 (π,ρ)45↑e9
      - 18 (π,ρ)46↑e10 - 18 (π,ρ)47↑e10
      - 42 (π,ρ)48↑e10 - 40 (π,ρ)49↑e10
      - 40 (π,ρ)50↑e10 - 40 (π,ρ)51↑e10
      - 50 (π,ρ)52↑e10 - 66 (π,ρ)53↑e10
      - 54 (π,ρ)54↑e10 - 56 (π,ρ)55↑e10
      - 72 (π,ρ)56↑e10 - 54 (π,ρ)57↑e10
      - 60 (π,ρ)58↑e10 - 56 (π,ρ)59↑e10
      - 76 (π,ρ)60↑e10 - 121 (π,ρ)61↑e11
      - 73 (π,ρ)62↑e12 - 109 (π,ρ)63↑e13
      - 163 (π,ρ)64↑e13 - 112 (π,ρ)65↑e13
      - 238 (π,ρ)66↑e13 - 247 (π,ρ)67↑e13
      - 232 (π,ρ)68↑e13 - 146 (π,ρ)69↑e13
      - 148 (π,ρ)70↑e13 - 183 (π,ρ)71↑e13
      - 207 (π,ρ)72↑e13 - 225 (π,ρ)73↑e13
      - 257 (π,ρ)74↑e13 - 164 (π,ρ)75↑e13
      - 196 (π,ρ)76↑e13 - 145 (π,ρ)77↑e13 + 1002 vnp5
      - 16 (π,ρ)78↑e20 - 72 (π,ρ)79↑e21
      - 96 (π,ρ)80↑e22 - 36 (π,ρ)81↑e23
      - 24 (π,ρ)82↑e23 - 18 (π,ρ)83↑e23
      - 9 (π,ρ)84↑e23 - 41 (π,ρ)85↑e23
      - 26 (π,ρ)86↑e23 - 38 (π,ρ)87↑e23
      - 41 (π,ρ)88↑e23 - 38 (π,ρ)89↑e23
      - 35 (π,ρ)90↑e23 - 54 (π,ρ)91↑e23
      - 57 (π,ρ)92↑e23 - 43 (π,ρ)93↑e23
      - 58 (π,ρ)94↑e23 - 72 (π,ρ)95↑e23
      - 66 (π,ρ)96↑e24 - 37 (π,ρ)97↑e25
      - 55 (π,ρ)98↑e25 - 55 (π,ρ)99↑e25
      - 47 (π,ρ)100↑e25 - 28 (π,ρ)101↑e25
      - 54 (π,ρ)102↑e25 - 71 (π,ρ)103↑e25
      - 37 (π,ρ)104↑e25 - 60 (π,ρ)105↑e25
      - 47 (π,ρ)106↑e25 - 45 (π,ρ)107↑e25
      - 51 (π,ρ)108↑e25 - 67 (π,ρ)109↑e25
      - 41 (π,ρ)110↑e25 - 41 (π,ρ)111↑e25
Subject To
 _EmbdConstr_vnp2e6#0:   vnp2 - (π,ρ)0↑e6 - (π,ρ)1↑e6
                         - (π,ρ)2↑e6 - (π,ρ)3↑e6
                         - (π,ρ)4↑e6 - (π,ρ)5↑e6
                         - (π,ρ)6↑e6 - (π,ρ)7↑e6
                         - (π,ρ)8↑e6 - (π,ρ)9↑e6
                         - (π,ρ)10↑e6 - (π,ρ)11↑e6
                         - (π,ρ)12↑e6 - (π,ρ)13↑e6
                         - (π,ρ)14↑e6  = 0
 _EmbdConstr_vnp2e7#1:   vnp2 - (π,ρ)15↑e7 - (π,ρ)16↑e7
                         - (π,ρ)17↑e7 - (π,ρ)18↑e7
                         - (π,ρ)19↑e7 - (π,ρ)20↑e7
                         - (π,ρ)21↑e7 - (π,ρ)22↑e7
                         - (π,ρ)23↑e7 - (π,ρ)24↑e7
                         - (π,ρ)25↑e7 - (π,ρ)26↑e7
                         - (π,ρ)27↑e7 - (π,ρ)28↑e7
                         - (π,ρ)29↑e7  = 0
 _EmbdConstr_vnp2e8#2:   vnp2 - (π,ρ)30↑e8  = 0
 _EmbdConstr_vnp3e9#3:   vnp3 - (π,ρ)31↑e9 - (π,ρ)32↑e9
                         - (π,ρ)33↑e9 - (π,ρ)34↑e9
                         - (π,ρ)35↑e9 - (π,ρ)36↑e9
                         - (π,ρ)37↑e9 - (π,ρ)38↑e9
                         - (π,ρ)39↑e9 - (π,ρ)40↑e9
                         - (π,ρ)41↑e9 - (π,ρ)42↑e9
                         - (π,ρ)43↑e9 - (π,ρ)44↑e9
                         - (π,ρ)45↑e9  = 0
 _EmbdConstr_vnp3e10#4:  vnp3 - (π,ρ)46↑e10 - (π,ρ)47↑e10
                         - (π,ρ)48↑e10 - (π,ρ)49↑e10
                         - (π,ρ)50↑e10 - (π,ρ)51↑e10
                         - (π,ρ)52↑e10 - (π,ρ)53↑e10
                         - (π,ρ)54↑e10 - (π,ρ)55↑e10
                         - (π,ρ)56↑e10 - (π,ρ)57↑e10
                         - (π,ρ)58↑e10 - (π,ρ)59↑e10
                         - (π,ρ)60↑e10  = 0
 _EmbdConstr_vnp3e11#5:  vnp3 - (π,ρ)61↑e11  = 0
 _EmbdConstr_vnp3e12#6:  vnp3 - (π,ρ)62↑e12  = 0
 _EmbdConstr_vnp3e13#7:  vnp3 - (π,ρ)63↑e13 - (π,ρ)64↑e13
                         - (π,ρ)65↑e13 - (π,ρ)66↑e13
                         - (π,ρ)67↑e13 - (π,ρ)68↑e13
                         - (π,ρ)69↑e13 - (π,ρ)70↑e13
                         - (π,ρ)71↑e13 - (π,ρ)72↑e13
                         - (π,ρ)73↑e13 - (π,ρ)74↑e13
                         - (π,ρ)75↑e13 - (π,ρ)76↑e13
                         - (π,ρ)77↑e13  = 0
 _EmbdConstr_vnp5e20#8:  vnp5 - (π,ρ)78↑e20  = 0
 _EmbdConstr_vnp5e21#9:  vnp5 - (π,ρ)79↑e21  = 0
 _EmbdConstr_vnp5e22#10: vnp5 - (π,ρ)80↑e22  = 0
 _EmbdConstr_vnp5e23#11: vnp5 - (π,ρ)81↑e23 - (π,ρ)82↑e23
                         - (π,ρ)83↑e23 - (π,ρ)84↑e23
                         - (π,ρ)85↑e23 - (π,ρ)86↑e23
                         - (π,ρ)87↑e23 - (π,ρ)88↑e23
                         - (π,ρ)89↑e23 - (π,ρ)90↑e23
                         - (π,ρ)91↑e23 - (π,ρ)92↑e23
                         - (π,ρ)93↑e23 - (π,ρ)94↑e23
                         - (π,ρ)95↑e23  = 0
 _EmbdConstr_vnp5e24#12: vnp5 - (π,ρ)96↑e24  = 0
 _EmbdConstr_vnp5e25#13: vnp5 - (π,ρ)97↑e25 - (π,ρ)98↑e25
                         - (π,ρ)99↑e25 - (π,ρ)100↑e25
                         - (π,ρ)101↑e25 - (π,ρ)102↑e25
                         - (π,ρ)103↑e25 - (π,ρ)104↑e25
                         - (π,ρ)105↑e25 - (π,ρ)106↑e25
                         - (π,ρ)107↑e25 - (π,ρ)108↑e25
                         - (π,ρ)109↑e25 - (π,ρ)110↑e25
                         - (π,ρ)111↑e25  = 0
 BwCapConstr_slink1#14:  5 (π,ρ)37↑e9 + 5 (π,ρ)38↑e9
                         + 5 (π,ρ)39↑e9 + 2 (π,ρ)52↑e10
                         + 2 (π,ρ)53↑e10 + 2 (π,ρ)54↑e10
                         <= 4
 BwCapConstr_slink2#15:  5 (π,ρ)37↑e9 + 5 (π,ρ)38↑e9
                         + 5 (π,ρ)39↑e9 + 2 (π,ρ)52↑e10
                         + 2 (π,ρ)53↑e10 + 2 (π,ρ)54↑e10
                         <= 4
 BwCapConstr_slink3#16:  5 (π,ρ)31↑e9 + 5 (π,ρ)32↑e9
                         + 5 (π,ρ)33↑e9 + 5 (π,ρ)34↑e9
                         + 5 (π,ρ)35↑e9 + 5 (π,ρ)36↑e9
                         + 5 (π,ρ)37↑e9 + 5 (π,ρ)38↑e9
                         + 5 (π,ρ)39↑e9 + 5 (π,ρ)45↑e9
                         + 3 (π,ρ)69↑e13 + 3 (π,ρ)70↑e13
                         + 3 (π,ρ)71↑e13 + 3 (π,ρ)73↑e13
                         + 3 (π,ρ)75↑e13 + 3 (π,ρ)76↑e13
                         + 3 (π,ρ)77↑e13 <= 11
 BwCapConstr_slink4#17:  5 (π,ρ)31↑e9 + 5 (π,ρ)32↑e9
                         + 5 (π,ρ)33↑e9 + 5 (π,ρ)34↑e9
                         + 5 (π,ρ)35↑e9 + 5 (π,ρ)36↑e9
                         + 5 (π,ρ)37↑e9 + 5 (π,ρ)38↑e9
                         + 5 (π,ρ)39↑e9 + 5 (π,ρ)40↑e9
                         + 5 (π,ρ)41↑e9 + 5 (π,ρ)42↑e9
                         + 5 (π,ρ)43↑e9 + 5 (π,ρ)44↑e9
                         + 5 (π,ρ)45↑e9 + 4 (π,ρ)61↑e11
                         + 3 (π,ρ)63↑e13 + 3 (π,ρ)64↑e13
                         + 3 (π,ρ)65↑e13 + 3 (π,ρ)66↑e13
                         + 3 (π,ρ)67↑e13 + 3 (π,ρ)68↑e13
                         + 3 (π,ρ)69↑e13 + 3 (π,ρ)70↑e13
                         + 3 (π,ρ)71↑e13 + 3 (π,ρ)75↑e13
                         + 3 (π,ρ)76↑e13 + 3 (π,ρ)77↑e13
                         <= 19
 BwCapConstr_slink5#18:  2 (π,ρ)0↑e6 + 2 (π,ρ)1↑e6
                         + 2 (π,ρ)2↑e6 + 2 (π,ρ)3↑e6
                         + 2 (π,ρ)7↑e6 + 2 (π,ρ)9↑e6
                         + 2 (π,ρ)12↑e6 + (π,ρ)24↑e7
                         + (π,ρ)25↑e7 + (π,ρ)26↑e7
                         + 5 (π,ρ)31↑e9 + 5 (π,ρ)32↑e9
                         + 5 (π,ρ)33↑e9 + 4 (π,ρ)34↑e9
                         + 4 (π,ρ)36↑e9 + 4 (π,ρ)37↑e9
                         + 5 (π,ρ)40↑e9 + 5 (π,ρ)41↑e9
                         + 5 (π,ρ)42↑e9 + 4 (π,ρ)44↑e9
                         + 4 (π,ρ)45↑e9 + 2 (π,ρ)46↑e10
                         + 2 (π,ρ)47↑e10 + 2 (π,ρ)48↑e10
                         + 2 (π,ρ)53↑e10 + 2 (π,ρ)55↑e10
                         + 2 (π,ρ)56↑e10 + 2 (π,ρ)57↑e10
                         <= 15
 BwCapConstr_slink6#19:  2 (π,ρ)13↑e6 + 4 (π,ρ)32↑e9
                         + 5 (π,ρ)34↑e9 + 5 (π,ρ)35↑e9
                         + 5 (π,ρ)36↑e9 + 4 (π,ρ)39↑e9
                         + 4 (π,ρ)41↑e9 + 5 (π,ρ)43↑e9
                         + 5 (π,ρ)44↑e9 + 5 (π,ρ)45↑e9
                         + 2 (π,ρ)49↑e10 + 2 (π,ρ)50↑e10
                         + 2 (π,ρ)51↑e10 <= 10
 BwCapConstr_slink7#20:  5 (π,ρ)34↑e9 + 5 (π,ρ)35↑e9
                         + 5 (π,ρ)36↑e9 + 2 (π,ρ)55↑e10
                         + 2 (π,ρ)56↑e10 + 2 (π,ρ)57↑e10
                         + 2 (π,ρ)60↑e10 + 3 (π,ρ)75↑e13
                         + 3 (π,ρ)76↑e13 + 3 (π,ρ)77↑e13
                         <= 6
 BwCapConstr_slink8#21:  2 (π,ρ)0↑e6 + 2 (π,ρ)1↑e6
                         + 2 (π,ρ)2↑e6 + 2 (π,ρ)3↑e6
                         + 2 (π,ρ)7↑e6 + 2 (π,ρ)9↑e6
                         + 2 (π,ρ)12↑e6 + (π,ρ)24↑e7
                         + (π,ρ)25↑e7 + (π,ρ)26↑e7
                         + 5 (π,ρ)34↑e9 + 5 (π,ρ)36↑e9
                         + 5 (π,ρ)37↑e9 + 5 (π,ρ)40↑e9
                         + 5 (π,ρ)41↑e9 + 5 (π,ρ)42↑e9
                         + 5 (π,ρ)44↑e9 + 2 (π,ρ)46↑e10
                         + 2 (π,ρ)47↑e10 + 2 (π,ρ)48↑e10
                         + 2 (π,ρ)52↑e10 + 2 (π,ρ)53↑e10
                         + 2 (π,ρ)54↑e10 + 2 (π,ρ)55↑e10
                         + 2 (π,ρ)58↑e10 + 3 (π,ρ)69↑e13
                         + 3 (π,ρ)70↑e13 + 3 (π,ρ)71↑e13
                         + 3 (π,ρ)73↑e13 <= 9
 BwCapConstr_slink9#22:  2 (π,ρ)2↑e6 + 2 (π,ρ)5↑e6
                         + 2 (π,ρ)6↑e6 + 2 (π,ρ)9↑e6
                         + 2 (π,ρ)10↑e6 + 2 (π,ρ)11↑e6
                         + 2 (π,ρ)13↑e6 + (π,ρ)19↑e7
                         + (π,ρ)22↑e7 + (π,ρ)23↑e7
                         + (π,ρ)27↑e7 + (π,ρ)28↑e7
                         + (π,ρ)29↑e7 + 5 (π,ρ)32↑e9
                         + 5 (π,ρ)39↑e9 + 5 (π,ρ)41↑e9
                         + 5 (π,ρ)43↑e9 + 5 (π,ρ)44↑e9
                         + 5 (π,ρ)45↑e9 + 2 (π,ρ)49↑e10
                         + 2 (π,ρ)50↑e10 + 2 (π,ρ)51↑e10
                         + 2 (π,ρ)54↑e10 + 2 (π,ρ)55↑e10
                         + 2 (π,ρ)56↑e10 + 2 (π,ρ)57↑e10
                         + 3 (π,ρ)75↑e13 + 3 (π,ρ)76↑e13
                         + 3 (π,ρ)77↑e13 <= 14
 BwCapConstr_slink10#23: 5 (π,ρ)40↑e9 + 5 (π,ρ)41↑e9
                         + 5 (π,ρ)42↑e9 + 5 (π,ρ)43↑e9
                         + 5 (π,ρ)44↑e9 + 5 (π,ρ)45↑e9
                         + (π,ρ)53↑e10 + 5 (π,ρ)62↑e12
                         + 3 (π,ρ)63↑e13 + 3 (π,ρ)64↑e13
                         + 3 (π,ρ)65↑e13 + 2 (π,ρ)70↑e13
                         + 3 (π,ρ)72↑e13 + 2 (π,ρ)77↑e13
                         <= 17
 BwCapConstr_slink11#24: 3 (π,ρ)61↑e11 + 2 (π,ρ)62↑e12
                         + 3 (π,ρ)66↑e13 + 3 (π,ρ)67↑e13
                         + 3 (π,ρ)68↑e13 + 3 (π,ρ)70↑e13
                         + (π,ρ)74↑e13 + 3 (π,ρ)77↑e13
                         <= 11
 BwCapConstr_slink12#25: (π,ρ)22↑e7 + 2 (π,ρ)48↑e10
                         + 2 (π,ρ)57↑e10 <= 2
 BwCapConstr_slink13#26: 2 (π,ρ)2↑e6 + 2 (π,ρ)9↑e6
                         + 2 (π,ρ)10↑e6 + 2 (π,ρ)11↑e6
                         + (π,ρ)14↑e6 + (π,ρ)27↑e7
                         + (π,ρ)28↑e7 + (π,ρ)29↑e7 <= 9
 BwCapConstr_slink14#27: 2 (π,ρ)58↑e10 + 2 (π,ρ)59↑e10
                         + 2 (π,ρ)60↑e10 <= 12
 BwCapConstr_slink15#28: 2 (π,ρ)0↑e6 + 2 (π,ρ)1↑e6
                         + 2 (π,ρ)2↑e6 + (π,ρ)24↑e7
                         + (π,ρ)25↑e7 + (π,ρ)26↑e7
                         + 4 (π,ρ)31↑e9 + 4 (π,ρ)33↑e9
                         + 4 (π,ρ)35↑e9 + 4 (π,ρ)38↑e9
                         + 4 (π,ρ)40↑e9 + 4 (π,ρ)42↑e9
                         + 4 (π,ρ)43↑e9 <= 5
 BwCapConstr_slink16#29: 2 (π,ρ)6↑e6 + 2 (π,ρ)7↑e6
                         + 2 (π,ρ)8↑e6 + 2 (π,ρ)9↑e6
                         + 2 (π,ρ)10↑e6 + 2 (π,ρ)11↑e6
                         + (π,ρ)27↑e7 + (π,ρ)28↑e7
                         + (π,ρ)29↑e7 <= 9
 BwCapConstr_slink17#30: 3 (π,ρ)32↑e9 + 5 (π,ρ)34↑e9
                         + 5 (π,ρ)35↑e9 + 5 (π,ρ)36↑e9
                         + 4 (π,ρ)37↑e9 + 3 (π,ρ)38↑e9
                         + 3 (π,ρ)39↑e9 + 3 (π,ρ)41↑e9
                         + 3 (π,ρ)67↑e13 + (π,ρ)69↑e13
                         + 3 (π,ρ)70↑e13 + 3 (π,ρ)72↑e13
                         + 3 (π,ρ)73↑e13 + 3 (π,ρ)74↑e13
                         + (π,ρ)75↑e13 <= 19
 BwCapConstr_slink18#31: 2 (π,ρ)3↑e6 + 2 (π,ρ)4↑e6
                         + 2 (π,ρ)5↑e6 + 2 (π,ρ)10↑e6
                         + (π,ρ)24↑e7 + (π,ρ)25↑e7
                         + (π,ρ)26↑e7 + (π,ρ)27↑e7
                         + (π,ρ)28↑e7 + (π,ρ)29↑e7
                         + 3 (π,ρ)30↑e8 <= 10
 BwCapConstr_slink19#32: 2 (π,ρ)0↑e6 + 2 (π,ρ)3↑e6
                         + 2 (π,ρ)4↑e6 + 2 (π,ρ)5↑e6
                         + 2 (π,ρ)10↑e6 + (π,ρ)15↑e7
                         + (π,ρ)16↑e7 + (π,ρ)17↑e7
                         + (π,ρ)25↑e7 + (π,ρ)27↑e7 <= 11
 BwCapConstr_slink20#33: 2 (π,ρ)6↑e6 + 2 (π,ρ)7↑e6
                         + 2 (π,ρ)8↑e6 + 2 (π,ρ)56↑e10
                         + 2 (π,ρ)58↑e10 + 2 (π,ρ)59↑e10
                         + 2 (π,ρ)60↑e10 <= 11
 BwCapConstr_slink21#34: 2 (π,ρ)12↑e6 + 2 (π,ρ)13↑e6
                         + 2 (π,ρ)14↑e6 + (π,ρ)18↑e7
                         + (π,ρ)19↑e7 + (π,ρ)20↑e7 <= 6
 BwCapConstr_slink22#35: 2 (π,ρ)3↑e6 + 2 (π,ρ)4↑e6
                         + 2 (π,ρ)5↑e6 + 2 (π,ρ)6↑e6
                         + 2 (π,ρ)7↑e6 + 2 (π,ρ)8↑e6
                         + 2 (π,ρ)12↑e6 + 2 (π,ρ)13↑e6
                         + 2 (π,ρ)14↑e6 + (π,ρ)15↑e7
                         + (π,ρ)16↑e7 + (π,ρ)17↑e7
                         + (π,ρ)18↑e7 + (π,ρ)19↑e7
                         + (π,ρ)20↑e7 + (π,ρ)21↑e7
                         + (π,ρ)24↑e7 + (π,ρ)27↑e7
                         + (π,ρ)28↑e7 + 2 (π,ρ)56↑e10
                         + 2 (π,ρ)58↑e10 + 2 (π,ρ)59↑e10
                         + 2 (π,ρ)60↑e10 + (π,ρ)102↑e25
                         + (π,ρ)105↑e25 + (π,ρ)106↑e25
                         + (π,ρ)107↑e25 + (π,ρ)108↑e25
                         + (π,ρ)109↑e25 <= 8
 BwCapConstr_slink23#36: (π,ρ)102↑e25 + (π,ρ)105↑e25
                         + (π,ρ)106↑e25 + (π,ρ)107↑e25
                         + (π,ρ)108↑e25 + (π,ρ)109↑e25
                         <= 11
 BwCapConstr_slink24#37: (π,ρ)15↑e7 + (π,ρ)18↑e7
                         + (π,ρ)20↑e7 + (π,ρ)21↑e7
                         + (π,ρ)22↑e7 + (π,ρ)23↑e7
                         + (π,ρ)25↑e7 + (π,ρ)26↑e7
                         + (π,ρ)29↑e7 + 2 (π,ρ)67↑e13
                         + (π,ρ)92↑e23 + (π,ρ)93↑e23
                         + (π,ρ)94↑e23 + (π,ρ)95↑e23
                         + (π,ρ)97↑e25 + (π,ρ)98↑e25
                         + (π,ρ)99↑e25 + (π,ρ)100↑e25
                         + (π,ρ)103↑e25 + (π,ρ)107↑e25
                         + (π,ρ)109↑e25 + (π,ρ)110↑e25
                         + (π,ρ)111↑e25 <= 16
 BwCapConstr_slink25#38: (π,ρ)16↑e7 + 2 (π,ρ)64↑e13
                         + 2 (π,ρ)66↑e13 + 2 (π,ρ)68↑e13
                         + 2 (π,ρ)71↑e13 + 3 (π,ρ)74↑e13
                         + 2 (π,ρ)76↑e13 + 2 (π,ρ)96↑e24
                         + (π,ρ)109↑e25 + (π,ρ)110↑e25
                         + (π,ρ)111↑e25 <= 11
 BwCapConstr_slink26#39: 2 (π,ρ)63↑e13 + 2 (π,ρ)65↑e13
                         + 3 (π,ρ)66↑e13 + 3 (π,ρ)67↑e13
                         + 3 (π,ρ)68↑e13 + 2 (π,ρ)69↑e13
                         + 3 (π,ρ)72↑e13 + 3 (π,ρ)73↑e13
                         + 3 (π,ρ)74↑e13 + 2 (π,ρ)75↑e13
                         + (π,ρ)91↑e23 + (π,ρ)92↑e23
                         + (π,ρ)93↑e23 + (π,ρ)94↑e23
                         + (π,ρ)95↑e23 + (π,ρ)97↑e25
                         + (π,ρ)98↑e25 + (π,ρ)99↑e25
                         + (π,ρ)103↑e25 + (π,ρ)106↑e25
                         + (π,ρ)107↑e25 + (π,ρ)108↑e25
                         <= 6
 BwCapConstr_slink27#40: 3 (π,ρ)74↑e13 + (π,ρ)81↑e23
                         + (π,ρ)85↑e23 + (π,ρ)86↑e23
                         + (π,ρ)88↑e23 + (π,ρ)90↑e23
                         + (π,ρ)95↑e23 + 2 (π,ρ)96↑e24
                         + (π,ρ)100↑e25 + (π,ρ)101↑e25
                         + (π,ρ)102↑e25 + (π,ρ)106↑e25
                         + (π,ρ)109↑e25 + (π,ρ)110↑e25
                         + (π,ρ)111↑e25 <= 10
 BwCapConstr_slink28#41: 3 (π,ρ)80↑e22 + (π,ρ)100↑e25
                         + (π,ρ)101↑e25 + (π,ρ)102↑e25
                         + (π,ρ)103↑e25 + (π,ρ)104↑e25
                         + (π,ρ)105↑e25 <= 12
 BwCapConstr_slink29#42: 3 (π,ρ)67↑e13 + (π,ρ)78↑e20
                         + 3 (π,ρ)80↑e22 + (π,ρ)86↑e23
                         + (π,ρ)92↑e23 + (π,ρ)93↑e23
                         + (π,ρ)94↑e23 + (π,ρ)95↑e23
                         + (π,ρ)98↑e25 + (π,ρ)108↑e25
                         <= 4
 BwCapConstr_slink30#43: (π,ρ)21↑e7 + (π,ρ)22↑e7
                         + (π,ρ)23↑e7 <= 8
 BwCapConstr_slink31#44: 4 (π,ρ)33↑e9 + 4 (π,ρ)35↑e9
                         + 4 (π,ρ)38↑e9 + (π,ρ)78↑e20
                         <= 9
 BwCapConstr_slink32#45: (π,ρ)18↑e7 + (π,ρ)19↑e7
                         + (π,ρ)20↑e7 + (π,ρ)21↑e7
                         + (π,ρ)22↑e7 + (π,ρ)23↑e7
                         + (π,ρ)26↑e7 + (π,ρ)28↑e7 <= 16
 BwCapConstr_slink33#46: 2 (π,ρ)1↑e6 + 2 (π,ρ)11↑e6
                         + 2 (π,ρ)12↑e6 + 2 (π,ρ)13↑e6
                         + 2 (π,ρ)14↑e6 + 3 (π,ρ)30↑e8
                         + 5 (π,ρ)33↑e9 + 5 (π,ρ)35↑e9
                         + 5 (π,ρ)38↑e9 + 5 (π,ρ)40↑e9
                         + 5 (π,ρ)43↑e9 <= 8
 BwCapConstr_slink34#47: 5 (π,ρ)31↑e9 + 5 (π,ρ)42↑e9 <= 6
 BwCapConstr_slink36#48: 4 (π,ρ)31↑e9 <= 1
 BwCapConstr_slink37#49: 3 (π,ρ)64↑e13 + 3 (π,ρ)66↑e13
                         + 3 (π,ρ)71↑e13 + 4 (π,ρ)79↑e21
                         + (π,ρ)85↑e23 + (π,ρ)87↑e23
                         + (π,ρ)88↑e23 + (π,ρ)89↑e23
                         + (π,ρ)91↑e23 + (π,ρ)95↑e23
                         + (π,ρ)99↑e25 <= 15
 BwCapConstr_slink38#50: 3 (π,ρ)68↑e13 + 3 (π,ρ)76↑e13
                         + (π,ρ)87↑e23 + (π,ρ)88↑e23
                         + (π,ρ)89↑e23 + (π,ρ)103↑e25
                         + (π,ρ)104↑e25 + (π,ρ)105↑e25
                         <= 19
 BwCapConstr_slink39#51: (π,ρ)84↑e23 + (π,ρ)85↑e23
                         + (π,ρ)86↑e23 + (π,ρ)93↑e23
                         <= 11
 BwCapConstr_slink40#52: (π,ρ)31↑e9 + (π,ρ)42↑e9
                         + 3 (π,ρ)66↑e13 + 3 (π,ρ)67↑e13
                         + 2 (π,ρ)71↑e13 + (π,ρ)81↑e23
                         + (π,ρ)82↑e23 + (π,ρ)83↑e23
                         + (π,ρ)90↑e23 + (π,ρ)91↑e23
                         + (π,ρ)92↑e23 + (π,ρ)94↑e23
                         + (π,ρ)98↑e25 + (π,ρ)108↑e25
                         <= 7
 BwCapConstr_slink41#53: 3 (π,ρ)65↑e13 + (π,ρ)82↑e23
                         + (π,ρ)84↑e23 + (π,ρ)85↑e23
                         + (π,ρ)86↑e23 + (π,ρ)87↑e23
                         + (π,ρ)88↑e23 + (π,ρ)89↑e23
                         + (π,ρ)90↑e23 + (π,ρ)91↑e23
                         + (π,ρ)92↑e23 + (π,ρ)103↑e25
                         + (π,ρ)104↑e25 + (π,ρ)105↑e25
                         <= 14
 BwCapConstr_slink42#54: 2 (π,ρ)32↑e9 + 3 (π,ρ)34↑e9
                         + 2 (π,ρ)36↑e9 + 2 (π,ρ)37↑e9
                         + 2 (π,ρ)39↑e9 + 3 (π,ρ)41↑e9
                         + 2 (π,ρ)44↑e9 + 4 (π,ρ)61↑e11
                         + 3 (π,ρ)63↑e13 + 3 (π,ρ)69↑e13
                         + 3 (π,ρ)72↑e13 + 3 (π,ρ)73↑e13
                         + 3 (π,ρ)74↑e13 + 3 (π,ρ)75↑e13
                         + (π,ρ)81↑e23 + (π,ρ)82↑e23
                         + (π,ρ)83↑e23 + (π,ρ)94↑e23
                         + (π,ρ)104↑e25 <= 15
 BwCapConstr_slink43#55: (π,ρ)90↑e23 + (π,ρ)91↑e23
                         + (π,ρ)92↑e23 <= 11
 BwCapConstr_slink44#56: 2 (π,ρ)34↑e9 + 2 (π,ρ)36↑e9
                         + 5 (π,ρ)37↑e9 + 3 (π,ρ)39↑e9
                         + (π,ρ)41↑e9 + (π,ρ)44↑e9
                         + 3 (π,ρ)64↑e13 + (π,ρ)65↑e13
                         + 3 (π,ρ)66↑e13 + 3 (π,ρ)67↑e13
                         + 3 (π,ρ)68↑e13 + 3 (π,ρ)71↑e13
                         + 3 (π,ρ)72↑e13 + 3 (π,ρ)73↑e13
                         + 3 (π,ρ)74↑e13 + 3 (π,ρ)76↑e13
                         <= 19
Bounds
 0 <= vnp2 <= 1
 0 <= (π,ρ)0↑e6 <= 1
 0 <= (π,ρ)1↑e6 <= 1
 0 <= (π,ρ)2↑e6 <= 1
 0 <= (π,ρ)3↑e6 <= 1
 0 <= (π,ρ)4↑e6 <= 1
 0 <= (π,ρ)5↑e6 <= 1
 0 <= (π,ρ)6↑e6 <= 1
 0 <= (π,ρ)7↑e6 <= 1
 0 <= (π,ρ)8↑e6 <= 1
 0 <= (π,ρ)9↑e6 <= 1
 0 <= (π,ρ)10↑e6 <= 1
 0 <= (π,ρ)11↑e6 <= 1
 0 <= (π,ρ)12↑e6 <= 1
 0 <= (π,ρ)13↑e6 <= 1
 0 <= (π,ρ)14↑e6 <= 1
 0 <= (π,ρ)15↑e7 <= 1
 0 <= (π,ρ)16↑e7 <= 1
 0 <= (π,ρ)17↑e7 <= 1
 0 <= (π,ρ)18↑e7 <= 1
 0 <= (π,ρ)19↑e7 <= 1
 0 <= (π,ρ)20↑e7 <= 1
 0 <= (π,ρ)21↑e7 <= 1
 0 <= (π,ρ)22↑e7 <= 1
 0 <= (π,ρ)23↑e7 <= 1
 0 <= (π,ρ)24↑e7 <= 1
 0 <= (π,ρ)25↑e7 <= 1
 0 <= (π,ρ)26↑e7 <= 1
 0 <= (π,ρ)27↑e7 <= 1
 0 <= (π,ρ)28↑e7 <= 1
 0 <= (π,ρ)29↑e7 <= 1
 0 <= (π,ρ)30↑e8 <= 1
 0 <= vnp3 <= 1
 0 <= (π,ρ)31↑e9 <= 1
 0 <= (π,ρ)32↑e9 <= 1
 0 <= (π,ρ)33↑e9 <= 1
 0 <= (π,ρ)34↑e9 <= 1
 0 <= (π,ρ)35↑e9 <= 1
 0 <= (π,ρ)36↑e9 <= 1
 0 <= (π,ρ)37↑e9 <= 1
 0 <= (π,ρ)38↑e9 <= 1
 0 <= (π,ρ)39↑e9 <= 1
 0 <= (π,ρ)40↑e9 <= 1
 0 <= (π,ρ)41↑e9 <= 1
 0 <= (π,ρ)42↑e9 <= 1
 0 <= (π,ρ)43↑e9 <= 1
 0 <= (π,ρ)44↑e9 <= 1
 0 <= (π,ρ)45↑e9 <= 1
 0 <= (π,ρ)46↑e10 <= 1
 0 <= (π,ρ)47↑e10 <= 1
 0 <= (π,ρ)48↑e10 <= 1
 0 <= (π,ρ)49↑e10 <= 1
 0 <= (π,ρ)50↑e10 <= 1
 0 <= (π,ρ)51↑e10 <= 1
 0 <= (π,ρ)52↑e10 <= 1
 0 <= (π,ρ)53↑e10 <= 1
 0 <= (π,ρ)54↑e10 <= 1
 0 <= (π,ρ)55↑e10 <= 1
 0 <= (π,ρ)56↑e10 <= 1
 0 <= (π,ρ)57↑e10 <= 1
 0 <= (π,ρ)58↑e10 <= 1
 0 <= (π,ρ)59↑e10 <= 1
 0 <= (π,ρ)60↑e10 <= 1
 0 <= (π,ρ)61↑e11 <= 1
 0 <= (π,ρ)62↑e12 <= 1
 0 <= (π,ρ)63↑e13 <= 1
 0 <= (π,ρ)64↑e13 <= 1
 0 <= (π,ρ)65↑e13 <= 1
 0 <= (π,ρ)66↑e13 <= 1
 0 <= (π,ρ)67↑e13 <= 1
 0 <= (π,ρ)68↑e13 <= 1
 0 <= (π,ρ)69↑e13 <= 1
 0 <= (π,ρ)70↑e13 <= 1
 0 <= (π,ρ)71↑e13 <= 1
 0 <= (π,ρ)72↑e13 <= 1
 0 <= (π,ρ)73↑e13 <= 1
 0 <= (π,ρ)74↑e13 <= 1
 0 <= (π,ρ)75↑e13 <= 1
 0 <= (π,ρ)76↑e13 <= 1
 0 <= (π,ρ)77↑e13 <= 1
 0 <= vnp5 <= 1
 0 <= (π,ρ)78↑e20 <= 1
 0 <= (π,ρ)79↑e21 <= 1
 0 <= (π,ρ)80↑e22 <= 1
 0 <= (π,ρ)81↑e23 <= 1
 0 <= (π,ρ)82↑e23 <= 1
 0 <= (π,ρ)83↑e23 <= 1
 0 <= (π,ρ)84↑e23 <= 1
 0 <= (π,ρ)85↑e23 <= 1
 0 <= (π,ρ)86↑e23 <= 1
 0 <= (π,ρ)87↑e23 <= 1
 0 <= (π,ρ)88↑e23 <= 1
 0 <= (π,ρ)89↑e23 <= 1
 0 <= (π,ρ)90↑e23 <= 1
 0 <= (π,ρ)91↑e23 <= 1
 0 <= (π,ρ)92↑e23 <= 1
 0 <= (π,ρ)93↑e23 <= 1
 0 <= (π,ρ)94↑e23 <= 1
 0 <= (π,ρ)95↑e23 <= 1
 0 <= (π,ρ)96↑e24 <= 1
 0 <= (π,ρ)97↑e25 <= 1
 0 <= (π,ρ)98↑e25 <= 1
 0 <= (π,ρ)99↑e25 <= 1
 0 <= (π,ρ)100↑e25 <= 1
 0 <= (π,ρ)101↑e25 <= 1
 0 <= (π,ρ)102↑e25 <= 1
 0 <= (π,ρ)103↑e25 <= 1
 0 <= (π,ρ)104↑e25 <= 1
 0 <= (π,ρ)105↑e25 <= 1
 0 <= (π,ρ)106↑e25 <= 1
 0 <= (π,ρ)107↑e25 <= 1
 0 <= (π,ρ)108↑e25 <= 1
 0 <= (π,ρ)109↑e25 <= 1
 0 <= (π,ρ)110↑e25 <= 1
 0 <= (π,ρ)111↑e25 <= 1
Binaries
 vnp2  (π,ρ)0↑e6  (π,ρ)1↑e6  (π,ρ)2↑e6 
 (π,ρ)3↑e6  (π,ρ)4↑e6  (π,ρ)5↑e6 
 (π,ρ)6↑e6  (π,ρ)7↑e6  (π,ρ)8↑e6 
 (π,ρ)9↑e6  (π,ρ)10↑e6  (π,ρ)11↑e6 
 (π,ρ)12↑e6  (π,ρ)13↑e6  (π,ρ)14↑e6 
 (π,ρ)15↑e7  (π,ρ)16↑e7  (π,ρ)17↑e7 
 (π,ρ)18↑e7  (π,ρ)19↑e7  (π,ρ)20↑e7 
 (π,ρ)21↑e7  (π,ρ)22↑e7  (π,ρ)23↑e7 
 (π,ρ)24↑e7  (π,ρ)25↑e7  (π,ρ)26↑e7 
 (π,ρ)27↑e7  (π,ρ)28↑e7  (π,ρ)29↑e7 
 (π,ρ)30↑e8  vnp3  (π,ρ)31↑e9  (π,ρ)32↑e9 
 (π,ρ)33↑e9  (π,ρ)34↑e9  (π,ρ)35↑e9 
 (π,ρ)36↑e9  (π,ρ)37↑e9  (π,ρ)38↑e9 
 (π,ρ)39↑e9  (π,ρ)40↑e9  (π,ρ)41↑e9 
 (π,ρ)42↑e9  (π,ρ)43↑e9  (π,ρ)44↑e9 
 (π,ρ)45↑e9  (π,ρ)46↑e10  (π,ρ)47↑e10 
 (π,ρ)48↑e10  (π,ρ)49↑e10  (π,ρ)50↑e10 
 (π,ρ)51↑e10  (π,ρ)52↑e10  (π,ρ)53↑e10 
 (π,ρ)54↑e10  (π,ρ)55↑e10  (π,ρ)56↑e10 
 (π,ρ)57↑e10  (π,ρ)58↑e10  (π,ρ)59↑e10 
 (π,ρ)60↑e10  (π,ρ)61↑e11  (π,ρ)62↑e12 
 (π,ρ)63↑e13  (π,ρ)64↑e13  (π,ρ)65↑e13 
 (π,ρ)66↑e13  (π,ρ)67↑e13  (π,ρ)68↑e13 
 (π,ρ)69↑e13  (π,ρ)70↑e13  (π,ρ)71↑e13 
 (π,ρ)72↑e13  (π,ρ)73↑e13  (π,ρ)74↑e13 
 (π,ρ)75↑e13  (π,ρ)76↑e13  (π,ρ)77↑e13  vnp5 
 (π,ρ)78↑e20  (π,ρ)79↑e21  (π,ρ)80↑e22 
 (π,ρ)81↑e23  (π,ρ)82↑e23  (π,ρ)83↑e23 
 (π,ρ)84↑e23  (π,ρ)85↑e23  (π,ρ)86↑e23 
 (π,ρ)87↑e23  (π,ρ)88↑e23  (π,ρ)89↑e23 
 (π,ρ)90↑e23  (π,ρ)91↑e23  (π,ρ)92↑e23 
 (π,ρ)93↑e23  (π,ρ)94↑e23  (π,ρ)95↑e23 
 (π,ρ)96↑e24  (π,ρ)97↑e25  (π,ρ)98↑e25 
 (π,ρ)99↑e25  (π,ρ)100↑e25  (π,ρ)101↑e25 
 (π,ρ)102↑e25  (π,ρ)103↑e25  (π,ρ)104↑e25 
 (π,ρ)105↑e25  (π,ρ)106↑e25  (π,ρ)107↑e25 
 (π,ρ)108↑e25  (π,ρ)109↑e25  (π,ρ)110↑e25 
 (π,ρ)111↑e25 
End
